1 20 199 1 
0 110
  1  22  22 0 18 1 1 1
  2  36  26 0 26 1 1 1
  3  21  45 0 11 1 1 1
  4  45  35 0 30 1 1 1
  5  55  20 0 21 1 1 1
  6  33  34 0 19 1 1 1
  7  50  50 0 15 1 1 1
  8  55  45 0 16 1 1 1
  9  26  59 0 29 1 1 1
 10  40  66 0 26 1 1 1
 11  55  65 0 37 1 1 1
 12  35  51 0 16 1 1 1
 13  62  35 0 12 1 1 1
 14  62  57 0 31 1 1 1
 15  62  24 0  8 1 1 1
 16  21  36 0 19 1 1 1
 17  33  44 0 20 1 1 1
 18   9  56 0 13 1 1 1
 19  62  48 0 15 1 1 1
 20  66  14 0 22 1 1 1
 21  44  13 0 28 1 1 1
 22  26  13 0 12 1 1 1
 23  11  28 0  6 1 1 1
 24   7  43 0 27 1 1 1
 25  17  64 0 14 1 1 1
 26  41  46 0 18 1 1 1
 27  55  34 0 17 1 1 1
 28  35  16 0 29 1 1 1
 29  52  26 0 13 1 1 1
 30  43  26 0 22 1 1 1
 31  31  76 0 25 1 1 1
 32  22  53 0 28 1 1 1
 33  26  29 0 27 1 1 1
 34  50  40 0 19 1 1 1
 35  55  50 0 10 1 1 1
 36  54  10 0 12 1 1 1
 37  60  15 0 14 1 1 1
 38  47  66 0 24 1 1 1
 39  30  60 0 16 1 1 1
 40  30  50 0 33 1 1 1
 41  12  17 0 15 1 1 1
 42  15  14 0 11 1 1 1
 43  16  19 0 18 1 1 1
 44  21  48 0 17 1 1 1
 45  50  30 0 21 1 1 1
 46  51  42 0 27 1 1 1
 47  50  15 0 19 1 1 1
 48  48  21 0 20 1 1 1
 49  12  38 0  5 1 1 1
 50  37  52 0  7 1 1 1
 51  49  49 0 30 1 1 1
 52  52  64 0 16 1 1 1
 53  20  26 0  9 1 1 1
 54  40  30 0 21 1 1 1
 55  21  47 0 15 1 1 1
 56  17  63 0 19 1 1 1
 57  31  62 0 23 1 1 1
 58  52  33 0 11 1 1 1
 59  51  21 0  5 1 1 1
 60  42  41 0 19 1 1 1
 61  31  32 0 29 1 1 1
 62   5  25 0 23   1 1 1
 63  12  42 0 21  1 1 1
 64  36  16 0 10 1 1 1
 65  52  41 0 15 1 1 1
 66  27  23 0  3 1 1 1
 67  17  33 0 41 1 1 1
 68  13  13 0  9 1 1 1
 69  57  58 0 28 1 1 1
 70  62  42 0  8 1 1 1
 71  42  57 0  8 1 1 1
 72  16  57 0 16 1 1 1
 73   8  52 0 10 1 1 1
 74   7  38 0 28 1 1 1
 75  27  68 0  7 1 1 1
 76  30  48 0 15 1 1 1
 77  43  67 0 14 1 1 1
 78  58  48 0  6 1 1 1
 79  58  27 0 19 1 1 1
 80  37  69 0 11 1 1 1
 81  38  46 0 12 1 1 1
 82  46  10 0 23 1 1 1
 83  61  33 0 26 1 1 1
 84  62  63 0 17 1 1 1
 85  63  69 0  6 1 1 1
 86  32  22 0  9 1 1 1
 87  45  35 0 15 1 1 1
 88  59  15 0 14 1 1 1
 89   5   6 0  7 1 1 1
 90  10  17 0 27 1 1 1
 91  21  10 0 13 1 1 1
 92   5  64 0 11 1 1 1
 93  30  15 0 16 1 1 1
 94  39  10 0 10 1 1 1
 95  32  39 0  5 1 1 1
 96  25  32 0 25 1 1 1
 97  25  55 0 17 1 1 1
 98  48  28 0 18 1 1 1
 99  56  37 0 10 1 1 1
100  41  49 0 10 1 1 1
101  35  17 0  7 1 1 1
102  55  45 0 13 1 1 1
103  55  20 0 19 1 1 1
104  15  30 0 26 1 1 1
105  25  30 0  3 1 1 1
106  20  50 0  5 1 1 1
107  10  43 0  9 1 1 1
108  55  60 0 16 1 1 1
109  30  60 0 16 1 1 1
110  20  65 0 12 1 1 1
111  50  35 0 19 1 1 1
112  30  25 0 23 1 1 1
113  15  10 0 20 1 1 1
114  30   5 0  8 1 1 1
115  10  20 0 19 1 1 1
116   5  30 0  2 1 1 1
117  20  40 0 12 1 1 1
118  15  60 0 17 1 1 1
119  45  65 0  9 1 1 1
120  45  20 0 11 1 1 1
121  45  10 0 18 1 1 1
122  55   5 0 29 1 1 1
123  65  35 0  3 1 1 1
124  65  20 0  6 1 1 1
125  45  30 0 17 1 1 1
126  35  40 0 16 1 1 1
127  41  37 0 16 1 1 1
128  64  42 0  9 1 1 1
129  40  60 0 21 1 1 1
130  31  52 0 27 1 1 1
131  35  69 0 23 1 1 1
132  53  52 0 11 1 1 1
133  65  55 0 14 1 1 1
134  63  65 0  8 1 1 1
135   2  60 0  5 1 1 1
136  20  20 0  8 1 1 1
137   5   5 0 16 1 1 1
138  60  12 0 31 1 1 1
139  40  25 0  9 1 1 1
140  42   7 0  5 1 1 1
141  24  12 0  5 1 1 1
142  23   3 0  7 1 1 1
143  11  14 0 18 1 1 1
144   6  38 0 16 1 1 1
145   2  48 0  1 1 1 1
146   8  56 0 27 1 1 1
147  13  52 0 36 1 1 1
148   6  68 0 30 1 1 1
149  47  47 0 13 1 1 1
150  49  58 0 10 1 1 1
151  27  43 0  9 1 1 1
152  37  31 0 14 1 1 1
153  57  29 0 18 1 1 1
154  63  23 0  2 1 1 1
155  53  12 0  6 1 1 1
156  32  12 0  7 1 1 1
157  36  26 0 18 1 1 1
158  21  24 0 28 1 1 1
159  17  34 0  3 1 1 1
160  12  24 0 13 1 1 1
161  24  58 0 19 1 1 1
162  27  69 0 10 1 1 1
163  15  77 0  9 1 1 1
164  62  77 0 20 1 1 1
165  49  73 0 25 1 1 1
166  67   5 0 25 1 1 1
167  56  39 0 36 1 1 1
168  37  47 0  6 1 1 1
169  37  56 0  5 1 1 1
170  57  68 0 15 1 1 1
171  47  16 0 25 1 1 1
172  44  17 0  9 1 1 1
173  46  13 0  8 1 1 1
174  49  11 0 18 1 1 1
175  49  42 0 13 1 1 1
176  53  43 0 14 1 1 1
177  61  52 0  3 1 1 1
178  57  48 0 23 1 1 1
179  56  37 0  6 1 1 1
180  55  54 0 26 1 1 1
181  15  47 0 16 1 1 1
182  14  37 0 11 1 1 1
183  11  31 0  7 1 1 1
184  16  22 0 41 1 1 1
185   4  18 0 35 1 1 1
186  28  18 0 26 1 1 1
187  26  52 0  9 1 1 1
188  26  35 0 15 1 1 1
189  31  67 0  3 1 1 1
190  15  19 0  1 1 1 1
191  22  22 0  2 1 1 1
192  18  24 0 22 1 1 1
193  26  27 0 27 1 1 1
194  25  24 0 20 1 1 1
195  22  27 0 11 1 1 1
196  25  21 0 12 1 1 1
197  19  21 0 10 1 1 1
198  20  26 0  9 1 1 1
199  18  18 0 17 1 1 1
  0  35  35 0  0 0 0
